(declare-const a Real)
(declare-const b Real)
(declare-const c Real)
(assert (= (* a b c) 1))
(assert (> a 0))
(assert (> b 0))
(assert (> c 0))
(assert (not (<= (+ (* -1767346 (pow b 4)) (* -1355698 (pow a 4)) (* (pow (+ (* (/ 52029 16) (pow (+ (* 2 a) (* 2 b)) 4)) (* 1930552 b (pow a 3))) 2) (pow (+ (* 208116 (pow (+ (* (/ 1 2) a) (* (/ 1 2) b)) 2) (pow (+ (* 2 a) (* 2 b)) 2)) (* 1930552 b (pow a 3))) -1)) (* -3538944 (pow a (pow 3 -1)) (pow b (/ 11 3))) (* -1769472 (pow a (/ 10 3)) (pow b (/ 2 3))) (* 6292792 a (pow b 3))) 0)))
(check-sat)
(get-model)
(exit)